proyfinal/src/viki/013/andrea/andrea-localstore/experimentInOfficeAgust.take6/worker_3/526ef725-ef89-48d0-8efb-b4b999fd4f60.als.cnf.out
Reading from standard input... Use '--help' for help.
============================[ Problem Statistics ]=============================
|                                                                             |
|  Number of variables:         87638                                         |
|  Number of clauses:          161767                                         |
|  Parse time:                   0.03 s                                       |
|                                                                             |
============================[ Search Statistics ]==============================
| Conflicts |          ORIGINAL         |          LEARNT          | Progress |
|           |    Vars  Clauses Literals |    Limit  Clauses Lit/Cl |          |
===============================================================================
|       100 |   63220   108270   270406 |    39699      100      8 | 27.862 % |
|       250 |   55751   108157   270085 |    43668      223     14 | 36.385 % |
|       475 |   55751   108157   270085 |    48035      448     32 | 36.385 % |
|       812 |   55090    85439   213996 |    52839      781     39 | 37.139 % |
|      1318 |   55089    83234   208099 |    58123     1241     47 | 37.140 % |
|      2077 |   54924    82574   206533 |    63935     1974     46 | 37.329 % |
|      3216 |   54760    81938   204997 |    70329     3068     56 | 37.516 % |
|      4924 |   54674    81750   204550 |    77362     4762     60 | 37.614 % |
|      7486 |   54378    80402   201335 |    85098     7216     60 | 37.952 % |
|     11330 |   53919    78536   196894 |    93608    10423     57 | 38.475 % |
|     17096 |   53580    76976   193234 |   102968    14067     54 | 38.862 % |
===============================================================================
restarts              : 63
conflicts             : 18759          (9418 /sec)
decisions             : 57194          (0.00 % random) (28715 /sec)
propagations          : 20527805       (10306406 /sec)
conflict literals     : 985537         (42.32 % deleted)
Memory used           : 28.43 MB
CPU time              : 1.99175 s

INDETERMINATE
